c A SAT instance generated from a 4-CNF formula that had 31 clauses and 21 variables
p cnf 21 31
-15 -12 -5 -13 0
-14 9 -13 8 0
17 -1 16 -20 0
-13 19 -6 -8 0
-20 -14 19 -17 0
-21 -7 -20 19 0
-21 13 3 6 0
5 12 -4 -1 0
-13 10 8 -14 0
-11 1 8 -21 0
7 -3 21 16 0
4 -16 2 8 0
-12 -15 -21 9 0
1 -11 -4 -17 0
18 -14 -4 2 0
1 18 21 -12 0
-5 -17 -15 -1 0
2 -17 18 -21 0
-10 -17 -11 -12 0
8 -2 -4 -21 0
-18 1 -9 5 0
-1 3 16 -7 0
-20 -9 -7 17 0
-5 15 10 -6 0
11 -17 6 14 0
-21 -8 -11 19 0
7 8 -5 20 0
-6 -2 3 14 0
-11 -19 -4 14 0
-4 21 -13 -7 0
1 -10 -19 -11 0
